p td 121 184
1 2
1 52
1 53
2 52
2 53
3 64
3 27
3 4
4 64
4 27
5 121
5 45
5 6
6 121
6 45
7 8
7 89
7 94
8 89
8 94
9 32
9 10
9 26
10 32
10 26
11 20
11 19
11 12
12 19
12 20
13 65
13 107
13 14
14 65
14 107
15 16
15 25
15 55
16 25
16 55
17 97
17 18
17 110
18 110
18 97
19 20
21 29
21 30
21 22
21 31
22 29
22 30
22 31
23 24
23 57
23 28
24 57
24 28
25 55
26 32
27 64
28 57
29 30
29 31
30 31
33 56
33 34
33 95
34 56
34 95
35 116
35 99
35 36
36 99
36 116
37 76
37 77
37 38
38 76
38 77
39 40
39 58
39 59
40 58
40 59
41 120
41 42
41 93
42 120
42 93
43 44
43 70
43 119
44 70
44 119
45 121
46 103
46 102
46 47
47 102
47 103
48 96
48 49
48 54
49 96
49 54
50 51
50 108
50 78
51 108
51 78
52 53
54 96
56 95
58 59
60 98
60 61
60 79
61 98
61 79
62 111
62 75
62 63
63 75
63 111
65 107
66 80
66 106
66 67
67 80
67 106
68 88
68 92
68 69
69 88
69 92
70 119
71 72
71 115
71 87
72 115
72 87
73 105
73 74
73 109
74 109
74 105
75 111
76 77
78 108
79 98
80 106
81 82
81 100
81 101
82 100
82 101
83 112
83 113
83 84
84 112
84 113
85 104
85 118
85 86
86 104
86 118
87 115
88 92
89 94
90 114
90 91
90 117
91 114
91 117
93 120
97 110
99 116
100 101
102 103
104 118
105 109
112 113
114 117
